CMD:
./solvers/bin/cadical --plain --no-reduce -t 1600 ./data/cnfs//arbitrated_top_n2_w128_d64_e0/arbitrated_top_n2_w128_d64_e0.61.cnf

c --- [ banner ] -------------------------------------------------------------
c 
c CaDiCaL SAT Solver
c Copyright (c) 2016-2024
c A. Biere, M. Fleury, N. Froleyks, K. Fazekas, F. Pollitt, T. Faller
c JKU Linz, University of Freiburg, TU Wien
c 
c Version 2.1.3 5296d3d2a9bf48c154ab2acb5e44625776d821bf
c g++ (Gentoo 12.3.1_p20230526 p2) 12.3.1 20230526 -Wall -Wextra -O3 -DNDEBUG
c Sat Aug 9 07:26:21 PDT 2025 Linux cedar2.int.cedar.computecanada.ca 5.14.0-362.24.2.el9_3.x86_64 x86_64
c 
c --- [ limit ] --------------------------------------------------------------
c 
c setting time limit to 1600 seconds real time (due to '-t 1600')
c 
c --- [ parsing input ] ------------------------------------------------------
c 
c reading DIMACS file from './data/cnfs//arbitrated_top_n2_w128_d64_e0/arbitrated_top_n2_w128_d64_e0.61.cnf'
c opening file to read './data/cnfs//arbitrated_top_n2_w128_d64_e0/arbitrated_top_n2_w128_d64_e0.61.cnf'
c found 'p cnf 5280882 15742917' header
c parsed 15742917 clauses in 2.18 seconds process time
c 
c --- [ options ] ------------------------------------------------------------
c 
c   --compact=false                (different from default 'true')
c   --decompose=false              (different from default 'true')
c   --deduplicate=false            (different from default 'true')
c   --elim=false                   (different from default 'true')
c   --probe=false                  (different from default 'true')
c   --reduce=false                 (different from default 'true')
c   --subsume=false                (different from default 'true')
c   --ternary=false                (different from default 'true')
c   --transred=false               (different from default 'true')
c   --vivify=false                 (different from default 'true')
c 
c --- [ solving ] ------------------------------------------------------------
c 
c time measured in process time since initialization
c 
c  seconds    reductions  redundant   irredundant
c          MB     restarts       trail          variables
c            level   conflicts       glue             remaining
c 
c *  2.18 2001  0 0   0    0    0  0% 0 11445424 2253684 43%
c {  2.31 2026  0 0   0    0    0  0% 0 11445424 2253684 43%
c i  3.32 2026 6151 0   2  294  266 73% 2 11445424 2253676 43%
c i  3.33 2026 5044 0   3  357  322 70% 2 11445424 2253541 43%
c i  3.34 2026 4990 0   4  361  325 70% 2 11445424 2253534 43%
c i  3.36 2026 4827 0   7  375  336 70% 2 11445424 2253244 43%
c i  3.54 2026 4727 0  10  388  345 70% 2 11445424 2253045 43%
c i  3.54 2026 4665 0  10  394  347 69% 2 11445424 2252911 43%
c i  3.57 2026 4499 0  14  408  359 69% 2 11445424 2252402 43%
c i  3.62 2026 4404 0  16  417  367 69% 2 11445424 2250974 43%
c i  3.83 2026 2823 0  77  650  585 65% 3 11445424 2250922 43%
c i  4.04 2026 2234 0  93  918  821 64% 7 11445424 2250650 43%
c i  4.14 2026 2135 0 105  966  864 63% 7 11445424 2250645 43%
c }  4.18 2026 2063 0 116 1000  898 63% 7 11445424 2250645 43%
c [  4.18 2026  0 0 116 1000  898  0% 0 11445424 2250645 43%
c i  4.27 2026 17115 0 116 1001  898 59% 0 11445424 2250644 43%
c O  4.33 2026 17239 0 116 1002  898 60% 0 11445424 2250644 43%
c i  4.33 2026 17239 0 116 1002  898 60% 0 11445424 2250643 43%
c i  5.51 2026 24056 0 117 2395 2147 80% 3 11445424 2249631 43%
c i  5.53 2026 19952 0 117 2679 2391 76% 3 11445424 2249630 43%
c 
c  seconds       reductions  redundant   irredundant
c          MB        restarts       trail          variables
c              level    conflicts       glue             remaining
c 
c i  5.53 2026 19647 0 117 2704 2413 76% 3 11445424 2249360 43%
c ]  5.55 2026 16674 0 117 3000 2689 73% 3 11445424 2249360 43%
c {  5.55 2026 2063 0 117 3000 2689 63% 7 11445424 2249360 43%
c F  5.57 2026 2057 0 118 3003 2692 63% 7 11445424 2249280 43%
c i  5.68 2026 1052 0 122 4011 3611 61% 6 11445424 2248333 43%
c i  5.69 2026 998 0 122 4133 3721 61% 6 11445424 2247602 43%
c i  5.69 2026 994 0 122 4141 3727 61% 6 11445424 2247467 43%
c i  5.69 2026 952 0 122 4238 3811 61% 6 11445424 2247464 43%
c i  5.69 2026 950 0 122 4246 3814 60% 6 11445424 2247063 43%
c i  5.69 2026 945 0 122 4259 3825 60% 6 11445424 2246928 43%
c i  5.80 2026 733 0 147 4978 4477 60% 5 11445424 2246919 43%
c i  5.82 2026 669 0 151 5277 4747 60% 5 11445424 2246905 43%
c #  5.87 2026 553 0 177 6005 5440 59% 5 11445424 2246905 43%
c }  5.95 2026 448 0 193 7001 6316 59% 5 11445424 2246905 43%
c [  5.95 2026 16674 0 193 7001 6316 73% 3 11445424 2246905 43%
c i  5.96 2026 15666 0 194 7126 6423 72% 4 11445424 2246767 43%
c i  6.13 2026 11649 0 194 7853 7103 69% 6 11445424 2246755 43%
c i  6.16 2026 10772 0 194 8079 7313 68% 6 11445424 2246748 43%
c i  6.16 2026 10612 0 194 8125 7355 68% 6 11445424 2246738 43%
c I  6.26 2026 6568 0 195 10007 9023 64% 7 11445424 2246737 43%
c 
c  seconds      reductions    redundant   irredundant
c          MB       restarts         trail          variables
c             level     conflicts        glue             remaining
c 
c i  8.25 2028 5268 0 197 11316 10237 63% 9 11445424 2246418 43%
c i  8.27 2028 5243 0 197 11348 10265 63% 9 11445424 2246341 43%
c i  8.28 2028 5228 0 197 11366 10281 63% 9 11445424 2246265 43%
c i  8.29 2028 5223 0 197 11372 10286 63% 9 11445424 2246188 43%
... skipped 190 lines ...
c i 718.38 2281 73 0 41771 806989 734499 63% 20 5373017 2239441 42%
c 
c  seconds     reductions       redundant     irredundant
c           MB      restarts            trail          variables
c             level      conflicts          glue             remaining
c 
c B 728.20 2281 79 0 41779 820085 747103 63% 20 5373017 2239090 42%
c W 765.76 2315 76 0 41798 861087 785726 63% 20 5371169 2239090 42%
c i 765.79 2315 76 0 41798 861101 785738 63% 20 5371169 2239059 42%
c O 790.59 2315 75 0 41810 903088 825836 63% 19 5371169 2239059 42%
c B 833.22 2315 67 0 41829 946089 865885 63% 19 5371169 2239059 42%
c W 869.94 2346 62 0 41832 990092 907990 63% 18 5371061 2239059 42%
c i 890.56 2346 60 0 41836 1009471 925222 62% 19 5371061 2239057 42%
c ] 902.92 2346 58 0 41845 1023003 937970 62% 18 5371061 2239057 42%
c { 902.92 2346 44 0 41845 1023003 937970 59% 8 5371061 2239057 42%
c # 930.16 2346 43 0 43858 1035093 949153 59% 8 5371061 2239057 42%
c i 955.82 2346 42 0 45662 1046327 959586 59% 8 5371061 2239055 42%
c i 955.82 2346 42 0 45662 1046328 959586 59% 8 5371061 2239029 42%
c i 955.83 2346 42 0 45662 1046342 959599 59% 8 5371061 2239021 42%
c i 955.83 2346 42 0 45662 1046344 959600 59% 8 5371061 2239019 42%
c i 955.83 2346 42 0 45662 1046345 959600 59% 8 5371061 2239017 42%
c i 955.83 2346 42 0 45662 1046347 959600 59% 8 5371061 2238994 42%
c i 955.83 2346 42 0 45662 1046349 959601 59% 8 5371061 2238989 42%
c i 955.83 2346 42 0 45662 1046352 959603 59% 8 5371061 2238987 42%
c i 966.07 2346 42 0 46410 1051629 964465 59% 9 5371061 2238977 42%
c i 977.38 2346 41 0 47205 1059396 971641 59% 9 5371061 2238767 42%
c 
c   seconds     reductions        redundant    irredundant
c            MB      restarts             trail         variables
c              level       conflicts          glue            remaining
c 
c B 1018.40 2346 41 0 50158 1081096 991984 59% 9 5371061 2238764 42%
c i 1061.01 2346 38 0 52912 1107259 1016105 59% 9 5371061 2238761 42%
c i 1064.53 2346 37 0 53010 1113014 1021139 59% 9 5371061 2238760 42%
c W 1095.74 2366 38 0 55084 1128098 1035182 59% 9 5357873 2238760 42%
c i 1131.86 2366 37 0 57502 1147313 1053196 59% 9 5357873 2238741 42%
c i 1165.78 2366 37 0 59605 1167921 1072002 59% 9 5357873 2238735 42%
c F 1176.87 2366 36 0 60221 1176099 1079470 59% 9 5357873 2238735 42%
c i 1202.86 2366 37 0 61881 1189291 1091932 59% 9 5357873 2238702 42%
c i 1229.44 2366 37 0 63582 1204934 1106543 59% 9 5357873 2238699 42%
c B 1263.55 2366 37 0 65798 1225102 1125126 59% 9 5357873 2238699 42%
c W 1347.80 2386 37 0 70458 1275104 1171391 59% 10 5357671 2238699 42%
c # 1431.48 2388 36 0 75313 1326108 1218612 59% 10 5357671 2238699 42%
c B 1519.13 2387 35 0 80342 1378109 1266330 59% 10 5357671 2238699 42%
c } 1590.55 2388 35 0 84120 1420174 1305551 59% 10 5357671 2238699 42%
c ? 1590.55 2388 35 0 84120 1420174 1305551 59% 10 5357671 2238699 42%
c 
c --- [ result ] -------------------------------------------------------------
c 
c UNKNOWN
c 
c --- [ run-time profiling ] -------------------------------------------------
c 
c process time taken by individual solving procedures
c (percentage relative to process time for solving)
c 
c      1588.36  100.00% search
c      1042.38   65.63% unstable
c       528.90   33.30% stable
c        16.95    1.07% walk
c         2.18    0.14% parse
c         0.13    0.01% lucky
c         0.00    0.00% simplify
c   =================================
c      1588.36   99.86% solve
c 
c last line shows process time for solving
c (percentage relative to total process time)
c 
c --- [ statistics ] ---------------------------------------------------------
c 
c chronological:            280718        19.77 %  of conflicts
c conflicts:               1420174       894.11    per second
c decisions:               5597165      3523.85    per second
c fixed:                   3041928        57.60 %  of all variables
c learned:                 1392687        98.06 %  per conflict
c learned_lits:          106225794       100.00 %  learned literals
c minimized:                     0         0.00 %  learned literals
c shrunken:               18755403        17.66 %  learned literals
c minishrunken:           30360335        28.58 %  learned literals
c otfs:                       4287         0.30 %  of conflict
c propagations:        17856451576        11.24 M  per second
c rephased:                     52     27311.04    interval
c restarts:                  84120        16.88    interval
c stabilizing:                   5        48.02 %  of conflicts
c subsumed:                  69670         0.54 %  of all clauses
c strengthened:               4169         0.03 %  of all clauses
c walked:                       16     88760.88    interval
c 
c seconds are measured in process time for solving
c 
c --- [ resources ] ----------------------------------------------------------
c 
c total process time since initialization:      1590.55    seconds
c total real time since initialization:         1600.01    seconds
c maximum resident set size of process:         2757.11    MB
c 
c --- [ shutting down ] ------------------------------------------------------
c 
c exit 0
